
Gurobi 10.0.1 (mac64[arm]) logging started Sun Apr  7 14:44:12 2024

Set parameter LogFile to value "/Users/deniserings/Documents/zib/s-bahn-data/scripts/DeniseMA/processed/BPKW_BKRW_BSNF_O/Branching/BPKW_BKRW_BSNF_O_other alternatives_subMBP202404071201.log"
Gurobi Optimizer version 10.0.1 build v10.0.1rc0 (mac64[arm])

CPU model: Apple M2
Thread count: 8 physical cores, 8 logical processors, using up to 8 threads

Optimize a model with 4424 rows, 2168 columns and 15776 nonzeros
Model fingerprint: 0x146f960c
Variable types: 1130 continuous, 1038 integer (66 binary)
Coefficient statistics:
  Matrix range     [1e+00, 2e+02]
  Objective range  [1e+00, 4e+02]
  Bounds range     [1e+00, 2e+02]
  RHS range        [1e+00, 5e+02]

Loaded user MIP start with objective 9798

Presolve removed 2423 rows and 1010 columns
Presolve time: 0.03s
Presolved: 2001 rows, 1158 columns, 7848 nonzeros
Found heuristic solution: objective 9797.9991610
Variable types: 478 continuous, 680 integer (680 binary)

Root relaxation: objective 9.179999e+03, 564 iterations, 0.01 seconds (0.00 work units)

    Nodes    |    Current Node    |     Objective Bounds      |     Work
 Expl Unexpl |  Obj  Depth IntInf | Incumbent    BestBd   Gap | It/Node Time

     0     0 9179.99916    0   43 9797.99916 9179.99916  6.31%     -    0s
H    0     0                    9797.9991165 9179.99916  6.31%     -    0s
     0     0 9179.99916    0   75 9797.99912 9179.99916  6.31%     -    0s
     0     0 9179.99916    0   86 9797.99912 9179.99916  6.31%     -    0s
     0     0 9179.99916    0   49 9797.99912 9179.99916  6.31%     -    0s
     0     0 9179.99916    0   63 9797.99912 9179.99916  6.31%     -    0s
     0     0 9179.99916    0   14 9797.99912 9179.99916  6.31%     -    0s
H    0     0                    9797.9991136 9179.99916  6.31%     -    0s
     0     0 9179.99916    0   16 9797.99911 9179.99916  6.31%     -    0s
     0     0 9187.21614    0   26 9797.99911 9187.21614  6.23%     -    0s
     0     0 9187.21614    0   26 9797.99911 9187.21614  6.23%     -    0s
     0     0 9187.21614    0   83 9797.99911 9187.21614  6.23%     -    0s
     0     0 9187.21614    0   82 9797.99911 9187.21614  6.23%     -    0s
     0     0 9187.21614    0   32 9797.99911 9187.21614  6.23%     -    0s
     0     0 9187.21614    0   32 9797.99911 9187.21614  6.23%     -    0s
     0     0 9187.21614    0   24 9797.99911 9187.21614  6.23%     -    0s
     0     0 9187.21614    0   78 9797.99911 9187.21614  6.23%     -    0s
     0     0 9187.21614    0   78 9797.99911 9187.21614  6.23%     -    0s
     0     0 9213.99916    0   51 9797.99911 9213.99916  5.96%     -    0s
     0     0 9214.01372    0   72 9797.99911 9214.01372  5.96%     -    0s
     0     0 9214.01372    0   74 9797.99911 9214.01372  5.96%     -    0s
     0     0 9214.01372    0   77 9797.99911 9214.01372  5.96%     -    0s
     0     0 9214.01372    0   76 9797.99911 9214.01372  5.96%     -    0s
     0     0 9214.01372    0   71 9797.99911 9214.01372  5.96%     -    0s
     0     0 9214.01372    0   71 9797.99911 9214.01372  5.96%     -    0s
     0     2 9214.01372    0   43 9797.99911 9214.01372  5.96%     -    0s
H   68    70                    9797.9990751 9242.02500  5.67%  17.4    0s
H 1673  1053                    9792.9991610 9259.99916  5.44%   9.3    0s
H 1676  1002                    9792.9991566 9259.99916  5.44%   9.3    0s
H 7079  3177                    9792.9991531 9321.72948  4.81%  10.5    2s
 26605 11617 9659.91137   27   38 9792.99915 9379.99916  4.22%  10.4    5s
H29627 11884                    9792.9991029 9393.99916  4.07%  10.8    8s
 29652 11901 9581.99916   40  112 9792.99910 9393.99916  4.07%  10.8   10s

Cutting planes:
  Learned: 2
  Gomory: 55
  Cover: 80
  Implied bound: 15
  Projected implied bound: 1
  Clique: 6
  MIR: 42
  StrongCG: 13
  Flow cover: 139
  Inf proof: 7
  Network: 2
  RLT: 10
  Relax-and-lift: 12

Explored 36591 nodes (466750 simplex iterations) in 12.95 seconds (11.10 work units)
Thread count was 8 (of 8 available processors)

Solution count 10: 9793 9793 9793 ... 9798

Optimal solution found (tolerance 1.00e-04)
Best objective 9.793000000000e+03, best bound 9.792999102881e+03, gap 0.0000%

User-callback calls 80231, time in user-callback 0.16 sec

Statistics for modelBPKW_BKRW_BSNF_O:
  Linear constraint matrix    : 4424 Constrs, 2168 Vars, 15776 NZs
  Variable types              : 1130 Continuous,
1038 Integer (66 Binary)
  Matrix coefficient range    : [ 1, 200 ]
  Objective coefficient range : [ 1, 368 ]
  Variable bound range        : [ 1, 199 ]
  RHS coefficient range       : [ 1, 549 ]

Gurobi 10.0.1 (mac64[arm]) logging started Sun Apr  7 14:44:25 2024

Set parameter LogFile to value "/Users/deniserings/Documents/zib/s-bahn-data/scripts/DeniseMA/processed/BPKW_BKRW_BSNF_O/Branching/BPKW_BKRW_BSNF_O_other alternatives_subMBP202404071201.log"
Gurobi Optimizer version 10.0.1 build v10.0.1rc0 (mac64[arm])

CPU model: Apple M2
Thread count: 8 physical cores, 8 logical processors, using up to 8 threads

Optimize a model with 4418 rows, 2168 columns and 15770 nonzeros
Model fingerprint: 0x14528dce
Variable types: 1130 continuous, 1038 integer (66 binary)
Coefficient statistics:
  Matrix range     [1e+00, 2e+02]
  Objective range  [1e+00, 4e+02]
  Bounds range     [1e+00, 2e+02]
  RHS range        [1e+00, 5e+02]

Loaded user MIP start with objective 9798

Presolve removed 2292 rows and 924 columns
Presolve time: 0.10s
Presolved: 2126 rows, 1244 columns, 8400 nonzeros
Found heuristic solution: objective 9797.9990019
Variable types: 536 continuous, 708 integer (708 binary)

Root relaxation: objective 8.799999e+03, 676 iterations, 0.01 seconds (0.01 work units)

    Nodes    |    Current Node    |     Objective Bounds      |     Work
 Expl Unexpl |  Obj  Depth IntInf | Incumbent    BestBd   Gap | It/Node Time

     0     0 8799.99900    0   28 9797.99900 8799.99900  10.2%     -    0s
H    0     0                    9797.9989568 8799.99900  10.2%     -    0s
     0     0 8812.38015    0  100 9797.99896 8812.38015  10.1%     -    0s
     0     0 8812.38015    0  111 9797.99896 8812.38015  10.1%     -    0s
     0     0 8964.23818    0   87 9797.99896 8964.23818  8.51%     -    0s
     0     0 8974.14676    0   91 9797.99896 8974.14676  8.41%     -    0s
     0     0 8974.14676    0  107 9797.99896 8974.14676  8.41%     -    0s
     0     0 8974.14676    0  100 9797.99896 8974.14676  8.41%     -    0s
H    0     0                    9797.9989559 8974.14676  8.41%     -    0s
     0     0 8974.14676    0   94 9797.99896 8974.14676  8.41%     -    0s
     0     0 8974.14676    0  102 9797.99896 8974.14676  8.41%     -    0s
     0     0 8974.14676    0  117 9797.99896 8974.14676  8.41%     -    0s
     0     0 8974.14676    0  103 9797.99896 8974.14676  8.41%     -    0s
     0     0 8974.14676    0   85 9797.99896 8974.14676  8.41%     -    0s
     0     0 8974.14676    0   99 9797.99896 8974.14676  8.41%     -    0s
     0     0 8974.14676    0   23 9797.99896 8974.14676  8.41%     -    0s
     0     0 8974.14676    0   43 9797.99896 8974.14676  8.41%     -    0s
     0     0 8974.14676    0   27 9797.99896 8974.14676  8.41%     -    0s
     0     0 8974.14676    0   64 9797.99896 8974.14676  8.41%     -    0s
     0     0 9133.14676    0   37 9797.99896 9133.14676  6.79%     -    0s
     0     0 9133.14676    0   37 9797.99896 9133.14676  6.79%     -    0s
     0     0 9179.99900    0   17 9797.99896 9179.99900  6.31%     -    0s
     0     0 9197.99900    0   67 9797.99896 9197.99900  6.12%     -    0s
     0     0 9197.99900    0   71 9797.99896 9197.99900  6.12%     -    0s
     0     0 9197.99900    0   87 9797.99896 9197.99900  6.12%     -    0s
     0     0 9197.99900    0   86 9797.99896 9197.99900  6.12%     -    0s
     0     0 9197.99900    0   26 9797.99896 9197.99900  6.12%     -    0s
     0     0 9197.99900    0   32 9797.99896 9197.99900  6.12%     -    0s
     0     0 9197.99900    0   32 9797.99896 9197.99900  6.12%     -    0s
     0     0 9197.99900    0   23 9797.99896 9197.99900  6.12%     -    0s
     0     2 9197.99900    0   23 9797.99896 9197.99900  6.12%     -    0s
H 1979  1304                    9792.9989559 9209.17022  5.96%  14.2    2s
H 3861  1599                    9792.9989100 9209.48668  5.96%  14.7    2s
H 4588  1720                    9792.9989089 9209.52265  5.96%  15.1    3s
 10733  4355 infeasible   46      9792.99891 9229.49048  5.75%  17.7    5s
 26127 10655 9573.65131   43   41 9792.99891 9301.62822  5.02%  18.7   10s
 29690 11742 9340.92758   25   68 9792.99891 9310.39851  4.93%  18.7   15s
H29704 11162                    9792.9989006 9310.39851  4.93%  18.7   16s
H29709 10606                    9792.9988922 9310.39851  4.93%  18.7   16s
H29830 10155                    9792.9987726 9310.39851  4.93%  18.9   17s
H30115  9720                    9792.9987706 9310.39851  4.93%  18.9   17s
H30970  9293                    9792.9987382 9341.53736  4.61%  19.0   18s
 36838  9733 9680.58923   36   64 9792.99874 9488.99900  3.10%  19.1   20s
 50243  7573 9610.51499   49   13 9792.99874 9553.99143  2.44%  19.0   25s
 67260  7154 9665.99900   58   15 9792.99874 9660.75378  1.35%  18.9   30s
 87252  9150 9691.99900   45   44 9792.99874 9688.46495  1.07%  18.4   35s
H94820  8845                    9792.9985775 9700.42756  0.95%  18.6   37s
 101827  8895 9709.77534   39   14 9792.99858 9707.56092  0.87%  18.8   40s
 117085  8802     cutoff   45      9792.99858 9718.99900  0.76%  19.2   45s
 132056  6680 9733.18384   41   29 9792.99858 9732.99900  0.61%  19.6   50s
 148238  1286     cutoff   45      9792.99858 9769.99900  0.23%  19.8   55s

Cutting planes:
  Learned: 8
  Gomory: 72
  Cover: 268
  Implied bound: 47
  Clique: 3
  MIR: 154
  StrongCG: 10
  Flow cover: 536
  GUB cover: 2
  Inf proof: 23
  Zero half: 2
  Network: 8
  RLT: 25
  Relax-and-lift: 20

Explored 151639 nodes (3009246 simplex iterations) in 56.17 seconds (47.13 work units)
Thread count was 8 (of 8 available processors)

Solution count 10: 9793 9793 9793 ... 9798

Optimal solution found (tolerance 1.00e-04)
Best objective 9.793000000000e+03, best bound 9.792998577527e+03, gap 0.0000%

User-callback calls 320855, time in user-callback 0.75 sec

Statistics for modelBPKW_BKRW_BSNF_O:
  Linear constraint matrix    : 4418 Constrs, 2168 Vars, 15770 NZs
  Variable types              : 1130 Continuous,
1038 Integer (66 Binary)
  Matrix coefficient range    : [ 1, 200 ]
  Objective coefficient range : [ 1, 368 ]
  Variable bound range        : [ 1, 199 ]
  RHS coefficient range       : [ 1, 549 ]

Gurobi 10.0.1 (mac64[arm]) logging started Sun Apr  7 14:45:21 2024

Set parameter LogFile to value "/Users/deniserings/Documents/zib/s-bahn-data/scripts/DeniseMA/processed/BPKW_BKRW_BSNF_O/Branching/BPKW_BKRW_BSNF_O_other alternatives_subMBP202404071201.log"
Gurobi Optimizer version 10.0.1 build v10.0.1rc0 (mac64[arm])

CPU model: Apple M2
Thread count: 8 physical cores, 8 logical processors, using up to 8 threads

Optimize a model with 4415 rows, 2168 columns and 15767 nonzeros
Model fingerprint: 0x3869dc9f
Variable types: 1130 continuous, 1038 integer (66 binary)
Coefficient statistics:
  Matrix range     [1e+00, 2e+02]
  Objective range  [1e+00, 4e+02]
  Bounds range     [1e+00, 2e+02]
  RHS range        [1e+00, 5e+02]

Loaded user MIP start with objective 9798

Presolve removed 2496 rows and 1070 columns
Presolve time: 0.18s
Presolved: 1919 rows, 1098 columns, 7582 nonzeros
Found heuristic solution: objective 9797.9995892
Variable types: 463 continuous, 635 integer (635 binary)

Root relaxation: objective 9.180000e+03, 677 iterations, 0.01 seconds (0.01 work units)

    Nodes    |    Current Node    |     Objective Bounds      |     Work
 Expl Unexpl |  Obj  Depth IntInf | Incumbent    BestBd   Gap | It/Node Time

     0     0 9179.99959    0   29 9797.99959 9179.99959  6.31%     -    0s
H    0     0                    9797.9995416 9179.99959  6.31%     -    0s
     0     0 9187.86591    0   68 9797.99954 9187.86591  6.23%     -    0s
     0     0 9187.86591    0   65 9797.99954 9187.86591  6.23%     -    0s
     0     0 9197.99959    0   67 9797.99954 9197.99959  6.12%     -    0s
     0     0 9197.99959    0   80 9797.99954 9197.99959  6.12%     -    0s
     0     0 9197.99959    0   61 9797.99954 9197.99959  6.12%     -    0s
     0     0 9197.99959    0   62 9797.99954 9197.99959  6.12%     -    0s
     0     0 9197.99959    0   23 9797.99954 9197.99959  6.12%     -    0s
     0     0 9197.99959    0   22 9797.99954 9197.99959  6.12%     -    0s
     0     0 9197.99959    0   27 9797.99954 9197.99959  6.12%     -    0s
     0     0 9197.99959    0   25 9797.99954 9197.99959  6.12%     -    0s
     0     0 9197.99959    0   20 9797.99954 9197.99959  6.12%     -    0s
     0     0 9197.99959    0   21 9797.99954 9197.99959  6.12%     -    0s
     0     0 9197.99959    0   22 9797.99954 9197.99959  6.12%     -    0s
     0     0 9197.99959    0   21 9797.99954 9197.99959  6.12%     -    0s
     0     2 9197.99959    0   21 9797.99954 9197.99959  6.12%     -    0s
H   31    39                    9792.9995822 9197.99959  6.08%  36.4    0s
H   64    75                    9792.9995449 9197.99959  6.08%  28.1    0s
H   70    75                    9792.9995416 9197.99959  6.08%  27.1    0s
H  119   131                    9792.9994562 9197.99959  6.08%  22.1    0s
H  175   191                    9792.9994403 9197.99959  6.08%  18.5    0s
H 1280   845                    9792.9993553 9200.70328  6.05%  12.4    1s
  3297  1568 9730.31094   42   43 9792.99936 9243.16357  5.61%  21.1    5s
 17894  9489 9432.66625   51   30 9792.99936 9313.57676  4.90%  19.2   10s
 30340 15468 9692.68943   54   21 9792.99936 9328.22120  4.75%  18.7   15s
 30383 15497 9597.99959   59   72 9792.99936 9328.22120  4.75%  18.7   20s
 32114 16199 9371.01030   55   41 9792.99936 9328.22120  4.75%  19.3   25s
 50788 20007     cutoff   72      9792.99936 9402.39207  3.99%  20.1   30s
 67837 21700     cutoff   69      9792.99936 9424.98956  3.76%  20.6   35s
 85197 25999 9569.99959   50   35 9792.99936 9441.19977  3.59%  21.0   40s
 97815 31236     cutoff   69      9792.99936 9450.98956  3.49%  21.1   45s
 116511 38183     cutoff   71      9792.99936 9467.55233  3.32%  21.2   50s
 133538 44980 9746.99959   63   21 9792.99936 9480.99959  3.19%  21.3   55s
 148749 50603 9494.80819   56   49 9792.99936 9485.44122  3.14%  21.6   60s
 162956 55660     cutoff   69      9792.99936 9487.23574  3.12%  21.9   65s
 177202 60365 9648.07970   70   20 9792.99936 9491.99959  3.07%  22.0   70s
 191924 64894     cutoff   67      9792.99936 9498.99959  3.00%  22.2   75s
 205996 69210 9715.74535   76   18 9792.99936 9501.99959  2.97%  22.3   80s
 221754 73702 9745.66352   55   36 9792.99936 9505.99959  2.93%  22.5   85s
 234658 76965 9658.99959   54   30 9792.99936 9506.99959  2.92%  22.7   90s
 248199 80536 9648.14779   63   54 9792.99936 9509.99959  2.89%  22.9   95s
 261860 83678 9665.99959   62   12 9792.99936 9513.99959  2.85%  23.1  100s
 270611 85984 9735.52496   59   33 9792.99936 9516.61133  2.82%  23.3  105s
 283711 89360     cutoff   68      9792.99936 9520.18970  2.79%  23.4  110s
 297781 93356 9791.99959   73   26 9792.99936 9524.07940  2.75%  23.5  115s
 309110 96582     cutoff   68      9792.99936 9526.99959  2.72%  23.7  120s
 322800 100089 infeasible   59      9792.99936 9530.70010  2.68%  23.8  125s
 336042 104112     cutoff   75      9792.99936 9533.99959  2.64%  23.9  130s
 349829 107791 9727.99959   57   13 9792.99936 9538.37646  2.60%  24.0  135s
 362687 110901 9591.98716   54   45 9792.99936 9541.98956  2.56%  24.1  140s
 374698 114357 9667.01054   60   36 9792.99936 9544.99959  2.53%  24.2  145s
 388126 117549     cutoff   67      9792.99936 9548.11553  2.50%  24.3  150s
 400071 120592 9668.91565   72   50 9792.99936 9550.99959  2.47%  24.3  155s
 412291 123234 9764.99959   64   35 9792.99936 9553.99959  2.44%  24.4  160s
 424464 126368     cutoff   68      9792.99936 9556.07250  2.42%  24.5  165s
 433801 128331     cutoff   57      9792.99936 9558.75609  2.39%  24.6  170s
 446216 131234 9722.99959   67   32 9792.99936 9560.99959  2.37%  24.6  175s
 458665 134084 9780.99959   67   18 9792.99936 9564.01486  2.34%  24.7  180s

Cutting planes:
  Learned: 4
  Gomory: 152
  Cover: 467
  Implied bound: 57
  Projected implied bound: 2
  Clique: 3
  MIR: 233
  StrongCG: 11
  Flow cover: 816
  Inf proof: 14
  Zero half: 3
  Network: 10
  RLT: 24
  Relax-and-lift: 41

Explored 459402 nodes (11347405 simplex iterations) in 180.38 seconds (156.16 work units)
Thread count was 8 (of 8 available processors)

Solution count 9: 9793 9793 9793 ... 9798

Solve interrupted
Best objective 9.792999355287e+03, best bound 9.564259339594e+03, gap 2.3358%

User-callback calls 969282, time in user-callback 2.34 sec

Statistics for modelBPKW_BKRW_BSNF_O:
  Linear constraint matrix    : 4415 Constrs, 2168 Vars, 15767 NZs
  Variable types              : 1130 Continuous,
1038 Integer (66 Binary)
  Matrix coefficient range    : [ 1, 200 ]
  Objective coefficient range : [ 1, 368 ]
  Variable bound range        : [ 1, 199 ]
  RHS coefficient range       : [ 1, 549 ]

Gurobi 10.0.1 (mac64[arm]) logging started Sun Apr  7 14:48:22 2024

Set parameter LogFile to value "/Users/deniserings/Documents/zib/s-bahn-data/scripts/DeniseMA/processed/BPKW_BKRW_BSNF_O/Branching/BPKW_BKRW_BSNF_O_other alternatives_subMBP202404071201.log"
Gurobi Optimizer version 10.0.1 build v10.0.1rc0 (mac64[arm])

CPU model: Apple M2
Thread count: 8 physical cores, 8 logical processors, using up to 8 threads

Optimize a model with 4413 rows, 2168 columns and 15765 nonzeros
Model fingerprint: 0xe6e10ac6
Variable types: 1130 continuous, 1038 integer (66 binary)
Coefficient statistics:
  Matrix range     [1e+00, 2e+02]
  Objective range  [1e+00, 4e+02]
  Bounds range     [1e+00, 2e+02]
  RHS range        [1e+00, 5e+02]

Loaded user MIP start with objective 9798

Presolve removed 2403 rows and 1044 columns
Presolve time: 0.15s
Presolved: 2010 rows, 1124 columns, 8076 nonzeros
Found heuristic solution: objective 9797.9992915
Variable types: 479 continuous, 645 integer (645 binary)

Root relaxation: objective 9.179999e+03, 688 iterations, 0.01 seconds (0.01 work units)

    Nodes    |    Current Node    |     Objective Bounds      |     Work
 Expl Unexpl |  Obj  Depth IntInf | Incumbent    BestBd   Gap | It/Node Time

     0     0 9179.99929    0   31 9797.99929 9179.99929  6.31%     -    0s
H    0     0                    9797.9992470 9179.99929  6.31%     -    0s
     0     0 9187.86562    0   90 9797.99925 9187.86562  6.23%     -    0s
     0     0 9187.86562    0   84 9797.99925 9187.86562  6.23%     -    0s
     0     0 9195.29929    0   71 9797.99925 9195.29929  6.15%     -    0s
H    0     0                    9797.9992441 9195.29929  6.15%     -    0s
     0     0 9195.29929    0   55 9797.99924 9195.29929  6.15%     -    0s
     0     0 9195.29929    0  127 9797.99924 9195.29929  6.15%     -    0s
     0     0 9195.29929    0  125 9797.99924 9195.29929  6.15%     -    0s
H    0     0                    9797.9991574 9195.29929  6.15%     -    0s
     0     0 9195.29929    0   45 9797.99916 9195.29929  6.15%     -    0s
     0     0 9195.29929    0   96 9797.99916 9195.29929  6.15%     -    0s
     0     0 9195.29929    0   52 9797.99916 9195.29929  6.15%     -    0s
     0     0 9195.29929    0   48 9797.99916 9195.29929  6.15%     -    0s
     0     0 9195.29929    0   38 9797.99916 9195.29929  6.15%     -    0s
     0     0 9195.29929    0   86 9797.99916 9195.29929  6.15%     -    0s
     0     0 9195.29929    0    9 9797.99916 9195.29929  6.15%     -    0s
     0     0 9195.29929    0   10 9797.99916 9195.29929  6.15%     -    0s
     0     0 9195.29929    0   15 9797.99916 9195.29929  6.15%     -    0s
     0     0 9195.29929    0    6 9797.99916 9195.29929  6.15%     -    0s
     0     2 9195.29929    0    6 9797.99916 9195.29929  6.15%     -    0s
H  387   320                    9792.9991574 9195.29929  6.10%  21.6    0s
H  395   320                    9783.9991574 9195.29929  6.02%  21.5    0s
H  515   406                    9775.9992033 9195.29929  5.94%  20.6    1s
H  519   406                    9775.9991574 9195.29929  5.94%  20.6    1s
H 1339  1016                    9770.9991574 9195.29929  5.89%  17.6    1s
  1671  1247 9235.99929   38   54 9770.99916 9214.34867  5.70%  28.3    5s
 11530  6632 9232.92935   43   30 9770.99916 9215.64367  5.68%  25.6   10s
 24326 13474 infeasible   55      9770.99916 9226.54801  5.57%  26.2   15s
 29429 15736 9252.83034   60    6 9770.99916 9229.15204  5.55%  26.3   20s
 29469 15763 9574.45594   60  111 9770.99916 9229.15204  5.55%  26.3   25s
 29962 16032 9246.94301   44   33 9770.99916 9244.67687  5.39%  26.9   30s
 40226 18450     cutoff   86      9770.99916 9365.58761  4.15%  27.8   35s
 53464 21231 9728.97778   61   60 9770.99916 9376.86631  4.03%  28.4   40s
 64065 23241 9596.93551   51   90 9770.99916 9378.83910  4.01%  28.2   45s
 75253 25289 9488.29003   54   40 9770.99916 9380.37945  4.00%  28.3   50s
 86403 30415 9678.62758   79   27 9770.99916 9382.95678  3.97%  28.6   55s
 98576 36490 9584.99929   70   35 9770.99916 9385.17583  3.95%  28.7   60s
 109882 41819 9550.17901   66   49 9770.99916 9387.47259  3.93%  28.8   65s
 121006 47012 infeasible   66      9770.99916 9391.49289  3.88%  28.8   70s
 131910 52348 9541.88333   60   55 9770.99916 9394.99929  3.85%  29.0   75s
 143727 58463 9722.70819   81   28 9770.99916 9396.92888  3.83%  29.0   80s
 152963 63054 9751.49929   75   18 9770.99916 9397.82381  3.82%  29.1   85s
 162669 67092 9546.99929   55   31 9770.99916 9399.88065  3.80%  29.3   90s
 173372 71687     cutoff   72      9770.99916 9401.60842  3.78%  29.4   95s
 183906 76275 9402.89230   54   50 9770.99916 9402.33737  3.77%  29.4  100s
 193995 80283 9467.31232   65   40 9770.99916 9403.92770  3.76%  29.5  105s
 202514 84294 9749.38638   76   28 9770.99916 9405.47692  3.74%  29.6  110s
 213781 89415 infeasible   63      9770.99916 9407.02200  3.73%  29.8  115s
 223028 93015 9507.53902   74   34 9770.99916 9408.03950  3.71%  30.0  120s
 233675 97115 9644.65059   69   63 9770.99916 9409.80914  3.70%  30.1  125s
 241770 100602 9753.99929   79   34 9770.99916 9410.99929  3.68%  30.2  130s
 252396 104453 9736.99929   78   35 9770.99916 9411.01302  3.68%  30.3  135s
 262389 108919 9427.03969   55   45 9770.99916 9411.03343  3.68%  30.2  140s
 272451 113172 9411.20103   65   74 9770.99916 9411.12005  3.68%  30.2  145s
 282073 116727     cutoff   80      9770.99916 9411.22021  3.68%  30.3  150s
 290834 120031 9463.51791   60   37 9770.99916 9411.41758  3.68%  30.4  155s
 299473 123669 9639.51791   68   56 9770.99916 9411.51791  3.68%  30.4  160s
 308214 127297     cutoff   80      9770.99916 9411.84266  3.68%  30.5  165s
 317175 130747 9427.02366   76   30 9770.99916 9412.08211  3.67%  30.6  170s
 325520 134340 9497.38364   72   67 9770.99916 9412.56940  3.67%  30.6  175s
 334083 137796 9627.51791   77   50 9770.99916 9413.15211  3.66%  30.7  180s

Cutting planes:
  Learned: 6
  Gomory: 153
  Cover: 643
  Implied bound: 48
  Projected implied bound: 1
  Clique: 3
  MIR: 232
  StrongCG: 13
  Flow cover: 1024
  Inf proof: 30
  Zero half: 3
  Mod-K: 1
  Network: 12
  RLT: 30
  Relax-and-lift: 27

Explored 335317 nodes (10288873 simplex iterations) in 180.10 seconds (148.90 work units)
Thread count was 8 (of 8 available processors)

Solution count 10: 9771 9776 9776 ... 9798

Solve interrupted
Best objective 9.770999157404e+03, best bound 9.413309598533e+03, gap 3.6607%

User-callback calls 716667, time in user-callback 2.02 sec

Statistics for modelBPKW_BKRW_BSNF_O:
  Linear constraint matrix    : 4413 Constrs, 2168 Vars, 15765 NZs
  Variable types              : 1130 Continuous,
1038 Integer (66 Binary)
  Matrix coefficient range    : [ 1, 200 ]
  Objective coefficient range : [ 1, 368 ]
  Variable bound range        : [ 1, 199 ]
  RHS coefficient range       : [ 1, 549 ]
